50
15395

888 804
253 911
633 179
403 610
910 998
37 995
265 947
941 386
362 435
693 431
917 758
339 481
789 707
459 910
679 385
536 79
390 131
161 575
704 542
782 406
548 458
615 150
984 849
785 995
415 379
306 234
142 453
972 371
864 118
473 264
53 68
229 592
679 537
157 673
198 730
577 440
51 52
612 524
110 828
418 212
342 438
416 394
468 581
798 453
625 947
31 585
52 680
108 606
564 662
460 740
